set V := a b c d e f;

param c:  a   b   c   d  e   f  :=
     a    .    03  05  100  88  55
     b    02   .   04  69  75  55
     c    04   03   .  100  99  85
     d    99   68  99   .  03  04
     e    87   74  98  02  .   05
     f    54   54  84  03  04  .
     ;